Ru                                      
   1.00000000000000     
    20.0000000000000000    0.0000000000000000    0.0000000000000000
     0.0000000000000000   20.0000000000000000    0.0000000000000000
     0.0000000000000000    0.0000000000000000   20.0000000000000000
   Fe Ni O   
    40 3 2 
Direct
  0.6087518860700740  0.3568391909141369  0.3991549505079064
  0.4950030242107815  0.5417961087564791  0.3398416611853179
  0.2900978409524484  0.4979494461825027  0.4107674669782071
  0.5940313528082086  0.6903223405611172  0.4696188388039317
  0.6095868447560235  0.4631735244803252  0.5982738085674484
  0.3937039664121116  0.3516467860258459  0.4045500724130662
  0.2942253093553688  0.3837882449857375  0.4753481422873591
  0.3955435114788557  0.6855308744017847  0.4745571265343287
  0.5007298401539089  0.3138750304266651  0.3413171655830638
  0.4940083742675370  0.6508602419339624  0.4030196047205905
  0.3915721597600239  0.5756745022452137  0.5366601722069646
  0.5972854564297734  0.3577029663771043  0.2733785319679427
  0.5060128551459542  0.4288759675819307  0.6674438729829575
  0.4982179207679707  0.5456429633053048  0.4716293037651766
  0.3985157140782434  0.3499844433998973  0.5397917500840492
  0.3908767482534898  0.4600582825282942  0.3425196355732680
  0.2843631889331064  0.6025598889342163  0.4761707681015750
  0.5015898450808720  0.5407408744324087  0.6022026276299002
  0.7099089907203080  0.3939935691692042  0.4648554800108684
  0.6020737929419298  0.5825622336670335  0.4064646414780455
  0.7087189241244687  0.5069562093747919  0.5314501342440181
  0.5029550969845147  0.4237505297766901  0.5398747547215450
  0.3964765690687742  0.4619014298897710  0.4736775355232510
  0.6040010483343963  0.4669011728610499  0.4684730568983753
  0.4973469637569110  0.6507846192916631  0.5400536335980846
  0.5038145380327350  0.3125792769322970  0.4676093474360101
  0.3896800217241676  0.5775004893624711  0.4117513952664851
  0.2932094268952525  0.4968082099208289  0.5419240351912222
  0.6050025461444264  0.3532378204725788  0.6610454012872609
  0.6064164039992690  0.5809252235204383  0.5313090216542378
  0.4994909577482574  0.4245879302546882  0.4002460329572131
  0.6106874067748223  0.3551335990836861  0.5344742990642857
  0.7089879532636374  0.6129785928999212  0.4654911474386552
  0.4961358018732014  0.4336610380976040  0.2749329546445480
  0.6032510503610951  0.4652217822576645  0.3372338650350954
  0.3975659312942952  0.4579868485460139  0.6035645712673627
  0.3988968709572376  0.3527944474723412  0.2783959241120897
  0.2864318267135175  0.3900922835479079  0.3508213180606319
  0.7111260740744640  0.4003235160802276  0.3400387364675055
  0.7052937664931278  0.5080236753966005  0.4003158326234555
  0.5071187438898122  0.3096774618043980  0.5970912087653772
  0.7155974849972111  0.3964604423196931  0.5897945731524388
  0.2945516579287926  0.3862687280578569  0.6003708567074639
  0.4106041093205590  0.3485093330080389  0.6659603099449996
  0.5102966623900116  0.3133722284601674  0.7266358686090371
